benchmarks_CP/INST_64x64/50/inst64x64_50_61.dzn
S=8;
start=[|
-1,	-1,	-1,	-1,	-1,	-1,	41,	-1,	-1,	56,	60,	62,	55,	-1,	37,	-1,	64,	12,	17,	-1,	49,	-1,	-1,	35,	11,	34,	-1,	8,	29,	-1,	23,	-1,	-1,	-1,	-1,	3,	40,	-1,	33,	-1,	-1,	27,	-1,	18,	-1,	-1,	-1,	-1,	50,	15,	-1,	-1,	38,	-1,	-1,	1,	58,	-1,	-1,	42,	31,	-1,	-1,	-1|
27,	-1,	10,	50,	7,	44,	49,	-1,	-1,	-1,	12,	52,	-1,	24,	-1,	15,	-1,	11,	-1,	-1,	34,	5,	-1,	1,	-1,	-1,	-1,	17,	20,	2,	13,	-1,	26,	-1,	-1,	-1,	-1,	55,	61,	-1,	-1,	-1,	32,	-1,	-1,	-1,	3,	16,	-1,	-1,	48,	18,	-1,	64,	29,	60,	-1,	-1,	45,	54,	43,	47,	-1,	8|
8,	-1,	60,	-1,	-1,	26,	-1,	17,	44,	51,	7,	-1,	-1,	-1,	9,	-1,	31,	13,	-1,	41,	59,	-1,	36,	-1,	4,	6,	-1,	30,	-1,	-1,	3,	-1,	23,	49,	-1,	62,	57,	16,	-1,	21,	64,	56,	-1,	-1,	48,	1,	-1,	20,	-1,	34,	47,	45,	-1,	-1,	58,	-1,	-1,	-1,	-1,	50,	-1,	-1,	39,	-1|
-1,	16,	11,	-1,	64,	-1,	58,	-1,	-1,	-1,	5,	-1,	-1,	-1,	-1,	-1,	2,	-1,	-1,	-1,	4,	-1,	45,	20,	60,	27,	21,	33,	-1,	40,	-1,	47,	-1,	10,	-1,	9,	-1,	-1,	-1,	14,	34,	-1,	57,	-1,	23,	-1,	61,	-1,	56,	-1,	-1,	35,	36,	-1,	-1,	37,	-1,	-1,	-1,	-1,	-1,	-1,	30,	-1|
36,	21,	-1,	-1,	24,	-1,	33,	23,	-1,	13,	8,	-1,	50,	-1,	-1,	-1,	48,	-1,	44,	18,	-1,	-1,	10,	62,	-1,	28,	42,	55,	43,	32,	49,	16,	-1,	-1,	-1,	-1,	-1,	-1,	12,	-1,	-1,	-1,	60,	4,	52,	-1,	-1,	7,	-1,	-1,	30,	31,	-1,	40,	-1,	57,	5,	-1,	-1,	-1,	17,	-1,	-1,	9|
48,	-1,	-1,	-1,	-1,	-1,	37,	32,	41,	-1,	-1,	-1,	-1,	-1,	-1,	34,	60,	46,	-1,	29,	-1,	-1,	-1,	30,	54,	26,	12,	-1,	-1,	-1,	31,	51,	20,	-1,	50,	27,	-1,	-1,	-1,	13,	24,	17,	-1,	-1,	49,	21,	-1,	9,	-1,	52,	-1,	-1,	23,	16,	-1,	7,	-1,	-1,	64,	-1,	18,	-1,	-1,	-1|
-1,	20,	6,	43,	31,	34,	4,	14,	-1,	-1,	-1,	-1,	19,	-1,	-1,	-1,	9,	-1,	-1,	-1,	-1,	-1,	-1,	-1,	64,	-1,	-1,	-1,	48,	44,	52,	15,	-1,	-1,	39,	-1,	8,	-1,	-1,	-1,	-1,	-1,	25,	10,	35,	-1,	22,	-1,	13,	-1,	24,	12,	-1,	59,	-1,	3,	-1,	41,	32,	-1,	-1,	-1,	40,	60|
-1,	47,	13,	-1,	-1,	-1,	61,	-1,	-1,	-1,	-1,	45,	6,	49,	14,	-1,	28,	-1,	40,	3,	56,	57,	39,	-1,	41,	10,	62,	59,	24,	9,	-1,	-1,	-1,	5,	64,	58,	19,	-1,	54,	35,	30,	-1,	-1,	50,	11,	-1,	-1,	-1,	-1,	44,	8,	-1,	-1,	-1,	-1,	-1,	27,	23,	52,	34,	36,	48,	63,	-1|
-1,	-1,	39,	-1,	14,	20,	-1,	37,	56,	-1,	-1,	-1,	17,	25,	-1,	32,	63,	1,	23,	49,	35,	53,	-1,	16,	8,	-1,	29,	-1,	51,	-1,	-1,	10,	7,	64,	-1,	-1,	47,	-1,	31,	-1,	19,	9,	30,	58,	-1,	-1,	-1,	59,	36,	-1,	22,	-1,	-1,	-1,	-1,	5,	55,	-1,	-1,	38,	-1,	-1,	-1,	28|
-1,	32,	-1,	-1,	55,	-1,	-1,	43,	10,	33,	11,	-1,	-1,	-1,	46,	-1,	3,	30,	-1,	48,	-1,	26,	34,	-1,	-1,	-1,	-1,	-1,	40,	-1,	-1,	54,	44,	-1,	-1,	-1,	-1,	-1,	49,	-1,	5,	-1,	51,	-1,	-1,	-1,	-1,	38,	-1,	37,	31,	59,	53,	-1,	24,	13,	1,	-1,	60,	-1,	-1,	-1,	9,	18|
4,	-1,	30,	18,	-1,	-1,	12,	13,	42,	7,	28,	-1,	60,	34,	16,	2,	-1,	40,	-1,	36,	-1,	-1,	57,	29,	-1,	64,	-1,	-1,	22,	49,	1,	31,	6,	8,	55,	-1,	38,	-1,	50,	-1,	-1,	-1,	-1,	-1,	-1,	-1,	54,	52,	46,	-1,	-1,	33,	62,	-1,	-1,	27,	23,	-1,	39,	-1,	-1,	-1,	-1,	-1|
-1,	-1,	-1,	-1,	-1,	5,	28,	51,	-1,	-1,	-1,	24,	-1,	26,	23,	27,	14,	58,	-1,	31,	20,	-1,	12,	38,	63,	17,	59,	-1,	-1,	62,	-1,	11,	-1,	30,	-1,	-1,	43,	61,	15,	54,	-1,	-1,	-1,	-1,	-1,	-1,	29,	-1,	3,	50,	-1,	9,	-1,	-1,	-1,	25,	36,	-1,	-1,	-1,	-1,	10,	-1,	-1|
-1,	25,	-1,	6,	-1,	-1,	-1,	-1,	51,	15,	37,	-1,	49,	18,	50,	38,	-1,	45,	5,	-1,	46,	-1,	59,	41,	34,	-1,	20,	58,	-1,	-1,	9,	21,	-1,	-1,	-1,	35,	63,	-1,	-1,	-1,	44,	62,	48,	16,	12,	-1,	13,	-1,	-1,	-1,	-1,	-1,	-1,	52,	54,	28,	24,	64,	26,	-1,	7,	2,	29,	43|
-1,	-1,	-1,	49,	-1,	29,	64,	27,	-1,	-1,	54,	35,	45,	-1,	13,	53,	18,	6,	-1,	21,	8,	62,	-1,	-1,	-1,	-1,	-1,	28,	37,	-1,	33,	-1,	4,	11,	-1,	-1,	36,	-1,	10,	-1,	-1,	-1,	46,	-1,	-1,	-1,	-1,	3,	7,	38,	-1,	-1,	-1,	-1,	63,	-1,	52,	-1,	41,	-1,	-1,	32,	-1,	61|
58,	-1,	23,	-1,	-1,	-1,	-1,	-1,	59,	29,	-1,	-1,	-1,	-1,	21,	-1,	39,	-1,	-1,	-1,	-1,	43,	28,	51,	-1,	38,	14,	-1,	-1,	26,	36,	56,	25,	-1,	-1,	53,	24,	62,	1,	5,	55,	-1,	37,	-1,	-1,	-1,	8,	-1,	-1,	16,	-1,	30,	-1,	18,	45,	-1,	-1,	-1,	-1,	17,	49,	-1,	13,	-1|
-1,	38,	-1,	1,	22,	-1,	9,	42,	55,	-1,	-1,	-1,	-1,	-1,	-1,	-1,	13,	-1,	37,	-1,	61,	17,	33,	-1,	-1,	25,	-1,	2,	-1,	12,	-1,	52,	16,	46,	51,	-1,	34,	3,	56,	57,	-1,	10,	-1,	-1,	-1,	63,	-1,	24,	-1,	-1,	64,	32,	-1,	-1,	6,	-1,	-1,	58,	14,	-1,	62,	31,	-1,	-1|
-1,	-1,	27,	39,	6,	-1,	54,	-1,	-1,	-1,	59,	17,	-1,	-1,	42,	-1,	-1,	28,	7,	4,	-1,	-1,	18,	49,	-1,	-1,	56,	20,	-1,	-1,	-1,	-1,	-1,	29,	-1,	30,	9,	41,	-1,	-1,	-1,	-1,	-1,	-1,	-1,	-1,	58,	25,	-1,	60,	-1,	-1,	13,	32,	-1,	-1,	33,	-1,	8,	46,	-1,	-1,	47,	-1|
-1,	26,	-1,	29,	-1,	41,	22,	34,	36,	39,	-1,	13,	-1,	-1,	-1,	-1,	24,	8,	-1,	-1,	-1,	-1,	-1,	47,	44,	-1,	52,	-1,	32,	-1,	28,	2,	-1,	38,	-1,	63,	58,	-1,	42,	-1,	18,	-1,	-1,	11,	-1,	-1,	-1,	27,	49,	21,	45,	6,	16,	31,	-1,	-1,	-1,	-1,	56,	40,	-1,	55,	-1,	-1|
53,	-1,	-1,	-1,	12,	-1,	-1,	-1,	28,	43,	-1,	6,	-1,	21,	31,	54,	46,	-1,	9,	39,	-1,	63,	-1,	-1,	-1,	13,	-1,	10,	-1,	64,	50,	4,	-1,	7,	60,	-1,	-1,	-1,	59,	37,	-1,	-1,	-1,	-1,	30,	33,	-1,	-1,	48,	-1,	23,	-1,	34,	22,	-1,	-1,	29,	-1,	44,	58,	2,	-1,	24,	26|
38,	-1,	24,	-1,	-1,	14,	44,	-1,	46,	53,	41,	-1,	16,	56,	2,	-1,	33,	-1,	-1,	58,	62,	-1,	40,	6,	7,	-1,	-1,	-1,	-1,	-1,	-1,	-1,	15,	-1,	-1,	-1,	-1,	-1,	11,	-1,	-1,	45,	20,	35,	51,	-1,	4,	-1,	28,	-1,	59,	-1,	-1,	42,	-1,	-1,	-1,	54,	-1,	32,	10,	5,	49,	-1|
-1,	9,	5,	-1,	-1,	63,	-1,	45,	62,	60,	24,	50,	47,	-1,	34,	-1,	20,	-1,	11,	16,	-1,	-1,	32,	13,	43,	-1,	-1,	27,	21,	-1,	-1,	-1,	-1,	-1,	-1,	-1,	28,	-1,	4,	-1,	12,	-1,	64,	-1,	-1,	-1,	10,	-1,	8,	33,	-1,	41,	-1,	-1,	36,	-1,	19,	-1,	7,	-1,	-1,	-1,	18,	-1|
21,	-1,	1,	51,	4,	61,	-1,	-1,	-1,	-1,	-1,	-1,	-1,	-1,	32,	-1,	38,	-1,	12,	-1,	-1,	-1,	-1,	-1,	-1,	-1,	-1,	-1,	-1,	-1,	-1,	39,	33,	-1,	-1,	-1,	-1,	-1,	-1,	56,	-1,	-1,	-1,	-1,	34,	59,	57,	47,	-1,	58,	2,	-1,	-1,	30,	-1,	19,	-1,	-1,	27,	6,	28,	-1,	-1,	-1|
-1,	58,	42,	28,	-1,	-1,	62,	-1,	-1,	4,	55,	7,	-1,	-1,	15,	-1,	35,	21,	-1,	-1,	-1,	31,	27,	-1,	-1,	-1,	18,	-1,	-1,	47,	-1,	19,	-1,	57,	6,	5,	32,	24,	-1,	22,	-1,	38,	41,	-1,	16,	-1,	-1,	-1,	-1,	-1,	-1,	-1,	20,	-1,	61,	-1,	63,	13,	-1,	53,	11,	36,	60,	51|
-1,	-1,	-1,	-1,	50,	-1,	60,	-1,	40,	-1,	-1,	-1,	18,	64,	-1,	23,	56,	43,	34,	-1,	-1,	-1,	-1,	54,	49,	-1,	1,	38,	33,	-1,	-1,	29,	55,	-1,	-1,	39,	-1,	-1,	-1,	-1,	-1,	-1,	-1,	-1,	24,	-1,	-1,	6,	62,	51,	4,	-1,	15,	57,	14,	9,	12,	22,	48,	-1,	21,	20,	17,	41|
32,	54,	-1,	-1,	49,	9,	-1,	20,	-1,	-1,	-1,	-1,	-1,	-1,	6,	-1,	12,	-1,	36,	-1,	24,	-1,	17,	64,	-1,	-1,	-1,	-1,	-1,	41,	58,	-1,	-1,	45,	5,	-1,	-1,	-1,	62,	-1,	35,	-1,	22,	-1,	-1,	-1,	59,	-1,	16,	-1,	51,	-1,	-1,	-1,	-1,	-1,	-1,	-1,	29,	-1,	-1,	11,	33,	25|
-1,	53,	-1,	-1,	13,	-1,	-1,	44,	39,	2,	-1,	11,	30,	-1,	12,	55,	4,	57,	-1,	-1,	-1,	35,	-1,	18,	1,	-1,	15,	24,	-1,	-1,	-1,	-1,	-1,	61,	-1,	23,	-1,	37,	-1,	-1,	33,	-1,	56,	-1,	-1,	-1,	34,	31,	-1,	-1,	-1,	48,	21,	38,	-1,	8,	-1,	-1,	-1,	60,	64,	41,	22,	6|
-1,	18,	8,	55,	-1,	-1,	-1,	35,	-1,	64,	34,	-1,	7,	3,	28,	61,	-1,	22,	-1,	54,	-1,	52,	-1,	-1,	-1,	37,	-1,	32,	2,	60,	25,	46,	-1,	-1,	-1,	48,	53,	29,	-1,	38,	-1,	21,	19,	-1,	57,	-1,	63,	-1,	47,	-1,	-1,	-1,	4,	11,	56,	-1,	50,	-1,	62,	-1,	-1,	40,	58,	-1|
17,	-1,	-1,	-1,	-1,	-1,	15,	-1,	52,	-1,	-1,	53,	-1,	60,	40,	-1,	43,	25,	55,	59,	-1,	46,	42,	21,	27,	39,	8,	11,	-1,	-1,	-1,	-1,	51,	4,	54,	7,	10,	-1,	-1,	-1,	61,	-1,	5,	-1,	-1,	6,	-1,	-1,	-1,	-1,	-1,	-1,	64,	-1,	-1,	45,	35,	-1,	31,	-1,	-1,	19,	2,	30|
-1,	43,	47,	-1,	-1,	-1,	24,	29,	-1,	-1,	-1,	22,	-1,	-1,	-1,	-1,	40,	19,	-1,	63,	-1,	-1,	49,	27,	14,	23,	-1,	9,	4,	59,	6,	64,	-1,	-1,	36,	42,	-1,	21,	-1,	17,	-1,	12,	-1,	20,	-1,	-1,	11,	8,	-1,	25,	26,	28,	-1,	54,	1,	-1,	-1,	-1,	-1,	3,	-1,	-1,	-1,	38|
2,	-1,	58,	38,	-1,	22,	26,	11,	-1,	-1,	13,	-1,	4,	57,	18,	-1,	50,	44,	56,	34,	31,	45,	-1,	15,	21,	-1,	-1,	16,	-1,	35,	-1,	-1,	-1,	-1,	33,	14,	6,	64,	8,	-1,	62,	-1,	-1,	54,	-1,	30,	37,	-1,	-1,	32,	-1,	-1,	41,	-1,	46,	40,	-1,	-1,	-1,	51,	-1,	42,	52,	39|
-1,	56,	52,	62,	-1,	45,	5,	-1,	19,	10,	-1,	-1,	14,	-1,	-1,	58,	30,	-1,	48,	37,	28,	29,	-1,	-1,	20,	22,	-1,	-1,	-1,	33,	51,	50,	-1,	-1,	15,	-1,	-1,	-1,	25,	55,	9,	-1,	4,	24,	-1,	43,	64,	-1,	-1,	-1,	53,	23,	-1,	-1,	-1,	6,	59,	-1,	-1,	-1,	-1,	-1,	-1,	21|
-1,	4,	16,	-1,	61,	42,	27,	-1,	-1,	-1,	46,	-1,	-1,	-1,	35,	17,	1,	53,	-1,	47,	32,	-1,	-1,	-1,	-1,	-1,	31,	26,	5,	48,	57,	-1,	40,	13,	30,	-1,	-1,	-1,	-1,	19,	3,	41,	-1,	-1,	-1,	-1,	51,	58,	-1,	-1,	-1,	-1,	-1,	33,	60,	-1,	44,	14,	54,	45,	9,	37,	-1,	-1|
14,	49,	22,	17,	-1,	8,	51,	28,	-1,	31,	29,	-1,	-1,	45,	4,	-1,	-1,	-1,	-1,	30,	-1,	44,	6,	57,	52,	46,	3,	-1,	-1,	-1,	-1,	12,	62,	-1,	53,	36,	26,	59,	-1,	-1,	-1,	55,	-1,	-1,	-1,	34,	-1,	61,	-1,	-1,	-1,	-1,	-1,	7,	10,	-1,	-1,	-1,	63,	43,	-1,	-1,	-1,	23|
9,	-1,	4,	16,	-1,	-1,	-1,	2,	-1,	11,	-1,	-1,	27,	-1,	64,	56,	-1,	-1,	-1,	-1,	-1,	-1,	-1,	-1,	31,	42,	-1,	-1,	-1,	-1,	30,	-1,	-1,	-1,	-1,	19,	37,	57,	41,	-1,	-1,	-1,	-1,	21,	-1,	54,	-1,	-1,	-1,	53,	46,	50,	-1,	-1,	-1,	-1,	-1,	-1,	59,	-1,	33,	-1,	-1,	-1|
-1,	30,	-1,	54,	36,	-1,	-1,	19,	63,	-1,	-1,	2,	-1,	32,	-1,	-1,	15,	-1,	24,	-1,	-1,	20,	-1,	-1,	-1,	8,	53,	4,	-1,	-1,	5,	-1,	-1,	-1,	7,	52,	33,	-1,	22,	45,	-1,	48,	12,	27,	-1,	9,	41,	-1,	55,	49,	17,	-1,	-1,	26,	-1,	58,	-1,	-1,	-1,	-1,	29,	-1,	-1,	11|
26,	-1,	-1,	35,	-1,	47,	-1,	3,	61,	28,	52,	-1,	-1,	-1,	-1,	44,	17,	7,	59,	11,	-1,	49,	-1,	-1,	51,	54,	34,	-1,	-1,	29,	-1,	-1,	48,	12,	-1,	64,	18,	-1,	-1,	-1,	13,	-1,	-1,	-1,	-1,	-1,	-1,	30,	-1,	24,	9,	2,	19,	-1,	-1,	38,	22,	39,	50,	-1,	-1,	45,	-1,	37|
-1,	-1,	44,	32,	57,	-1,	-1,	-1,	-1,	-1,	43,	37,	34,	47,	7,	22,	-1,	-1,	52,	28,	26,	41,	-1,	61,	25,	-1,	33,	19,	-1,	20,	38,	14,	-1,	31,	29,	-1,	35,	-1,	39,	4,	-1,	-1,	15,	45,	58,	10,	49,	60,	-1,	-1,	-1,	51,	8,	-1,	-1,	-1,	-1,	5,	-1,	-1,	-1,	13,	-1,	-1|
50,	-1,	-1,	-1,	42,	55,	18,	59,	53,	-1,	-1,	26,	58,	-1,	-1,	-1,	-1,	16,	-1,	5,	-1,	33,	43,	-1,	-1,	7,	28,	-1,	57,	22,	63,	37,	-1,	20,	-1,	-1,	21,	44,	-1,	-1,	-1,	11,	-1,	-1,	-1,	36,	-1,	-1,	27,	13,	-1,	-1,	-1,	-1,	52,	4,	-1,	12,	10,	-1,	41,	49,	-1,	-1|
-1,	-1,	62,	37,	-1,	25,	-1,	38,	21,	-1,	33,	-1,	-1,	10,	-1,	12,	-1,	34,	-1,	-1,	-1,	23,	-1,	-1,	17,	-1,	39,	-1,	-1,	-1,	-1,	-1,	50,	14,	40,	11,	56,	-1,	-1,	-1,	-1,	46,	52,	-1,	7,	24,	-1,	-1,	20,	22,	-1,	36,	-1,	44,	30,	-1,	-1,	35,	-1,	64,	26,	58,	42,	4|
-1,	-1,	-1,	-1,	15,	12,	-1,	6,	-1,	-1,	-1,	-1,	48,	14,	60,	-1,	-1,	31,	13,	-1,	-1,	-1,	35,	-1,	-1,	49,	26,	44,	-1,	45,	-1,	-1,	30,	-1,	-1,	-1,	-1,	28,	43,	9,	29,	-1,	3,	8,	63,	39,	-1,	22,	1,	-1,	-1,	54,	-1,	-1,	37,	-1,	-1,	-1,	19,	-1,	20,	-1,	-1,	-1|
-1,	10,	21,	64,	19,	43,	14,	56,	-1,	-1,	-1,	47,	-1,	46,	22,	25,	-1,	36,	28,	20,	12,	-1,	2,	58,	61,	-1,	-1,	48,	23,	39,	18,	38,	-1,	-1,	9,	-1,	27,	49,	44,	11,	-1,	-1,	-1,	-1,	6,	-1,	62,	-1,	-1,	-1,	7,	-1,	-1,	60,	-1,	29,	-1,	-1,	15,	-1,	-1,	57,	-1,	-1|
-1,	-1,	-1,	-1,	35,	-1,	25,	4,	30,	-1,	62,	-1,	-1,	-1,	5,	45,	61,	-1,	-1,	43,	39,	64,	-1,	17,	57,	-1,	-1,	-1,	31,	6,	32,	-1,	-1,	59,	-1,	-1,	-1,	20,	-1,	2,	40,	-1,	-1,	13,	-1,	-1,	-1,	-1,	-1,	55,	56,	10,	54,	19,	22,	33,	-1,	28,	-1,	63,	46,	-1,	-1,	52|
3,	-1,	53,	-1,	9,	13,	63,	52,	37,	57,	6,	-1,	64,	48,	49,	-1,	8,	-1,	-1,	-1,	-1,	25,	4,	-1,	-1,	20,	-1,	-1,	-1,	-1,	56,	41,	10,	-1,	-1,	-1,	17,	50,	-1,	58,	54,	-1,	-1,	-1,	-1,	-1,	-1,	55,	-1,	-1,	-1,	16,	-1,	14,	-1,	26,	-1,	44,	43,	23,	32,	-1,	-1,	42|
-1,	-1,	-1,	33,	-1,	27,	48,	-1,	34,	-1,	39,	21,	-1,	38,	-1,	-1,	-1,	52,	-1,	23,	44,	-1,	24,	5,	29,	-1,	10,	51,	-1,	-1,	-1,	-1,	-1,	22,	31,	-1,	-1,	-1,	-1,	-1,	-1,	64,	43,	-1,	53,	32,	-1,	-1,	-1,	8,	-1,	-1,	57,	-1,	-1,	36,	-1,	-1,	3,	-1,	59,	-1,	54,	-1|
-1,	31,	-1,	-1,	47,	-1,	40,	-1,	3,	-1,	-1,	61,	-1,	63,	54,	36,	32,	-1,	-1,	-1,	50,	34,	-1,	45,	26,	-1,	-1,	37,	-1,	4,	-1,	-1,	52,	-1,	56,	-1,	-1,	19,	-1,	-1,	20,	-1,	42,	9,	18,	-1,	-1,	1,	30,	5,	11,	-1,	-1,	2,	-1,	44,	6,	-1,	17,	39,	-1,	8,	-1,	-1|
-1,	-1,	32,	42,	11,	-1,	29,	-1,	-1,	-1,	-1,	-1,	33,	16,	-1,	18,	54,	55,	-1,	56,	47,	38,	30,	31,	50,	14,	-1,	-1,	-1,	17,	-1,	-1,	63,	37,	23,	-1,	-1,	-1,	-1,	7,	48,	49,	21,	-1,	-1,	-1,	-1,	46,	43,	3,	-1,	-1,	-1,	25,	51,	34,	-1,	-1,	-1,	-1,	45,	-1,	64,	-1|
37,	6,	-1,	44,	5,	54,	-1,	-1,	7,	9,	-1,	56,	8,	-1,	-1,	43,	59,	62,	3,	35,	-1,	10,	-1,	-1,	30,	60,	-1,	25,	-1,	15,	-1,	-1,	28,	55,	-1,	34,	-1,	-1,	-1,	39,	17,	-1,	-1,	33,	22,	-1,	-1,	4,	53,	41,	1,	64,	-1,	-1,	32,	-1,	47,	61,	36,	11,	19,	27,	31,	58|
20,	-1,	-1,	-1,	8,	17,	-1,	-1,	-1,	35,	58,	-1,	11,	31,	19,	50,	-1,	-1,	41,	-1,	27,	42,	7,	63,	62,	43,	-1,	-1,	55,	54,	64,	-1,	46,	-1,	18,	-1,	48,	-1,	32,	51,	-1,	3,	-1,	56,	36,	-1,	-1,	-1,	37,	-1,	13,	39,	-1,	28,	-1,	15,	-1,	-1,	-1,	-1,	5,	21,	-1,	-1|
30,	22,	-1,	-1,	-1,	6,	-1,	36,	-1,	-1,	16,	-1,	-1,	-1,	56,	8,	44,	4,	-1,	33,	-1,	47,	51,	-1,	10,	50,	11,	39,	41,	-1,	19,	57,	24,	-1,	-1,	43,	45,	12,	13,	-1,	-1,	40,	-1,	-1,	9,	58,	-1,	-1,	-1,	-1,	-1,	15,	37,	53,	64,	-1,	26,	-1,	-1,	49,	-1,	-1,	14,	5|
61,	37,	-1,	57,	2,	53,	-1,	-1,	-1,	-1,	9,	-1,	10,	-1,	36,	41,	-1,	20,	42,	55,	-1,	12,	-1,	56,	23,	21,	-1,	-1,	64,	-1,	48,	28,	35,	-1,	11,	-1,	-1,	47,	-1,	6,	-1,	-1,	24,	34,	-1,	-1,	-1,	-1,	-1,	43,	-1,	44,	18,	-1,	39,	-1,	-1,	59,	58,	33,	-1,	4,	62,	-1|
28,	-1,	-1,	15,	-1,	-1,	-1,	-1,	49,	-1,	-1,	-1,	-1,	19,	39,	-1,	34,	18,	43,	60,	5,	13,	58,	40,	37,	-1,	4,	-1,	14,	-1,	61,	-1,	-1,	-1,	-1,	-1,	30,	-1,	55,	-1,	-1,	16,	-1,	36,	-1,	52,	32,	-1,	45,	-1,	-1,	-1,	-1,	12,	-1,	-1,	-1,	57,	21,	-1,	54,	-1,	11,	2|
35,	12,	18,	20,	23,	64,	-1,	47,	6,	34,	21,	-1,	-1,	2,	63,	48,	-1,	14,	46,	-1,	-1,	-1,	-1,	-1,	5,	-1,	44,	29,	58,	8,	24,	-1,	9,	-1,	-1,	-1,	-1,	-1,	7,	-1,	-1,	59,	10,	-1,	-1,	41,	-1,	-1,	-1,	-1,	54,	62,	-1,	4,	3,	52,	43,	60,	-1,	37,	-1,	16,	-1,	13|
13,	-1,	-1,	-1,	29,	-1,	-1,	-1,	58,	5,	-1,	-1,	-1,	37,	-1,	-1,	-1,	2,	-1,	-1,	-1,	48,	-1,	59,	55,	-1,	27,	-1,	30,	-1,	-1,	33,	38,	53,	1,	21,	-1,	63,	17,	20,	26,	-1,	-1,	-1,	39,	35,	15,	44,	-1,	11,	25,	-1,	46,	34,	-1,	-1,	-1,	-1,	-1,	-1,	6,	28,	-1,	12|
-1,	34,	-1,	56,	-1,	-1,	-1,	-1,	24,	42,	50,	12,	61,	13,	-1,	11,	21,	63,	6,	-1,	-1,	36,	23,	-1,	22,	9,	-1,	18,	17,	25,	-1,	-1,	59,	60,	3,	28,	-1,	-1,	-1,	-1,	4,	-1,	-1,	-1,	46,	-1,	47,	-1,	19,	-1,	-1,	8,	-1,	-1,	31,	-1,	53,	-1,	55,	-1,	39,	-1,	35,	-1|
-1,	-1,	-1,	8,	-1,	-1,	1,	-1,	27,	45,	-1,	23,	28,	4,	-1,	-1,	-1,	64,	25,	15,	-1,	11,	-1,	-1,	59,	32,	-1,	-1,	62,	42,	47,	43,	-1,	18,	58,	50,	2,	5,	34,	-1,	14,	-1,	29,	-1,	-1,	48,	53,	-1,	10,	6,	-1,	-1,	-1,	-1,	-1,	24,	-1,	-1,	61,	9,	52,	-1,	-1,	7|
-1,	11,	25,	46,	-1,	-1,	31,	-1,	-1,	52,	-1,	-1,	20,	53,	3,	-1,	-1,	24,	-1,	-1,	-1,	39,	-1,	9,	38,	2,	-1,	35,	15,	-1,	12,	-1,	-1,	19,	22,	-1,	44,	4,	-1,	-1,	8,	6,	61,	-1,	-1,	5,	21,	57,	-1,	23,	-1,	7,	-1,	41,	48,	-1,	-1,	-1,	-1,	-1,	-1,	-1,	-1,	45|
-1,	35,	43,	52,	18,	48,	-1,	-1,	12,	-1,	-1,	-1,	-1,	-1,	-1,	-1,	47,	41,	33,	-1,	-1,	-1,	-1,	10,	39,	-1,	-1,	-1,	-1,	-1,	-1,	8,	3,	56,	4,	-1,	31,	-1,	19,	26,	-1,	63,	-1,	51,	-1,	-1,	-1,	11,	22,	-1,	20,	42,	24,	27,	13,	-1,	-1,	-1,	37,	-1,	30,	1,	-1,	57|
-1,	-1,	37,	-1,	-1,	-1,	-1,	-1,	8,	-1,	-1,	-1,	54,	-1,	-1,	-1,	-1,	-1,	49,	17,	-1,	9,	-1,	11,	12,	-1,	58,	-1,	-1,	24,	14,	61,	39,	50,	47,	20,	5,	-1,	2,	10,	-1,	-1,	35,	-1,	1,	-1,	48,	-1,	38,	59,	-1,	-1,	25,	-1,	7,	-1,	-1,	31,	-1,	-1,	51,	-1,	27,	32|
-1,	63,	15,	9,	44,	10,	11,	58,	-1,	-1,	1,	-1,	5,	28,	-1,	31,	25,	54,	-1,	2,	-1,	18,	38,	-1,	13,	29,	37,	47,	-1,	7,	-1,	30,	64,	24,	-1,	17,	-1,	32,	-1,	48,	60,	34,	-1,	-1,	-1,	-1,	-1,	-1,	40,	-1,	-1,	-1,	55,	35,	-1,	-1,	21,	8,	33,	-1,	14,	39,	46,	22|
-1,	28,	31,	-1,	-1,	-1,	56,	-1,	-1,	-1,	64,	27,	-1,	17,	-1,	-1,	55,	35,	39,	24,	15,	61,	-1,	42,	48,	11,	49,	60,	-1,	10,	40,	-1,	-1,	-1,	-1,	-1,	-1,	33,	14,	-1,	37,	43,	-1,	30,	47,	19,	-1,	5,	-1,	62,	3,	34,	-1,	-1,	-1,	54,	-1,	-1,	53,	7,	-1,	52,	-1,	50|
64,	-1,	-1,	-1,	-1,	16,	-1,	-1,	-1,	-1,	14,	4,	-1,	-1,	53,	52,	-1,	-1,	30,	51,	43,	-1,	62,	-1,	-1,	5,	23,	22,	-1,	55,	-1,	-1,	11,	42,	37,	-1,	1,	-1,	6,	28,	-1,	24,	-1,	31,	33,	-1,	18,	21,	-1,	-1,	36,	-1,	10,	15,	-1,	-1,	-1,	45,	25,	13,	63,	-1,	34,	-1|
41,	60,	-1,	61,	20,	-1,	7,	-1,	47,	6,	-1,	55,	37,	-1,	-1,	-1,	-1,	-1,	-1,	19,	-1,	14,	-1,	34,	-1,	-1,	64,	-1,	46,	28,	4,	42,	-1,	15,	62,	-1,	54,	-1,	-1,	23,	-1,	-1,	17,	-1,	-1,	-1,	27,	10,	-1,	31,	44,	5,	-1,	9,	-1,	18,	38,	48,	-1,	29,	35,	-1,	43,	-1|
-1,	62,	-1,	-1,	25,	-1,	-1,	53,	-1,	-1,	49,	43,	3,	23,	-1,	-1,	58,	-1,	57,	-1,	-1,	-1,	-1,	-1,	-1,	41,	-1,	31,	26,	38,	15,	-1,	34,	-1,	-1,	-1,	22,	-1,	9,	-1,	-1,	29,	6,	7,	8,	-1,	-1,	-1,	39,	30,	-1,	37,	1,	61,	-1,	-1,	-1,	-1,	-1,	28,	-1,	-1,	20,	-1|
19,	-1,	-1,	27,	34,	-1,	57,	46,	2,	-1,	38,	-1,	-1,	50,	30,	10,	37,	-1,	-1,	-1,	-1,	1,	5,	-1,	33,	51,	63,	54,	36,	18,	21,	-1,	53,	-1,	-1,	13,	7,	43,	35,	-1,	23,	-1,	58,	15,	4,	-1,	-1,	-1,	-1,	45,	52,	29,	11,	-1,	28,	49,	3,	9,	-1,	-1,	60,	56,	59,	40|];
