sudoku-ls/benchmarks_LEQ/INST_64x64/50/inst64x64_50_61.txt
8
1
51	57	28	25	-1	-1	41	9	-1	-1	60	-1	55	39	37	59	64	-1	-1	-1	-1	19	14	-1	11	-1	-1	8	29	-1	23	5	22	-1	48	-1	-1	-1	-1	43	47	27	-1	18	-1	13	46	54	-1	15	-1	-1	38	-1	-1	-1	-1	20	-1	-1	-1	6	-1	16
27	-1	10	50	-1	-1	-1	-1	35	-1	-1	52	-1	24	-1	15	23	11	53	-1	-1	-1	-1	1	58	19	-1	-1	-1	2	-1	-1	26	51	28	4	-1	55	61	-1	36	33	-1	-1	59	-1	3	-1	63	-1	-1	18	9	-1	-1	60	-1	56	-1	54	-1	-1	37	8
8	42	-1	-1	-1	-1	52	17	44	-1	7	-1	-1	-1	-1	-1	-1	-1	-1	-1	59	15	36	-1	-1	6	-1	30	18	-1	-1	-1	-1	49	-1	-1	57	16	37	-1	-1	-1	-1	-1	-1	1	14	20	33	-1	-1	-1	27	5	58	55	-1	-1	-1	-1	38	-1	-1	-1
-1	16	11	-1	-1	-1	-1	62	1	18	5	-1	31	54	48	3	2	42	-1	-1	4	-1	-1	-1	60	-1	-1	33	-1	40	-1	47	41	-1	-1	9	15	17	-1	14	-1	-1	-1	43	-1	-1	61	28	56	19	-1	35	-1	6	49	37	7	-1	13	-1	-1	-1	-1	55
36	-1	-1	45	-1	15	33	23	22	-1	8	-1	-1	27	47	20	48	-1	44	-1	25	-1	-1	-1	-1	28	42	-1	43	32	-1	-1	56	-1	-1	-1	-1	-1	12	53	51	-1	60	-1	-1	37	-1	7	-1	-1	-1	31	-1	40	41	57	-1	-1	-1	1	-1	-1	-1	9
-1	5	-1	3	-1	-1	-1	32	-1	-1	25	-1	-1	61	-1	-1	-1	-1	-1	29	33	8	47	-1	54	26	-1	-1	-1	-1	31	51	-1	-1	-1	27	-1	-1	45	-1	-1	17	-1	-1	49	21	6	9	-1	52	62	43	23	-1	-1	-1	-1	-1	64	-1	18	-1	-1	-1
-1	20	6	43	-1	-1	-1	-1	23	17	63	-1	19	-1	11	-1	-1	27	-1	7	55	-1	16	37	64	57	50	56	-1	44	-1	15	-1	-1	39	-1	8	1	-1	30	-1	5	25	-1	-1	-1	-1	-1	13	28	24	-1	-1	59	-1	-1	49	41	32	26	-1	-1	40	-1
29	-1	13	-1	46	38	-1	-1	32	16	2	45	6	-1	-1	-1	28	51	-1	3	-1	-1	-1	43	41	10	-1	59	24	9	-1	7	-1	5	-1	-1	19	60	-1	35	-1	-1	-1	-1	-1	42	-1	12	25	44	-1	4	22	17	-1	20	-1	23	52	-1	36	48	63	-1
-1	-1	39	-1	14	20	-1	37	-1	3	-1	41	17	-1	62	-1	63	-1	23	49	-1	53	44	-1	8	-1	-1	42	-1	13	-1	10	-1	-1	21	-1	-1	52	31	-1	-1	-1	-1	-1	-1	-1	-1	-1	-1	26	22	40	2	48	-1	-1	55	-1	-1	38	12	50	15	28
-1	32	56	19	55	-1	17	-1	-1	-1	-1	58	-1	12	-1	-1	-1	-1	27	48	52	-1	-1	25	6	-1	-1	-1	-1	-1	16	54	-1	-1	45	29	39	14	-1	-1	5	-1	-1	-1	64	-1	7	-1	42	-1	-1	59	-1	-1	24	-1	-1	21	60	-1	4	-1	9	18
-1	-1	30	18	41	-1	-1	13	-1	7	-1	48	60	-1	16	2	-1	40	10	-1	19	24	-1	-1	-1	64	35	-1	-1	-1	1	31	6	-1	-1	37	38	9	50	-1	43	61	14	-1	26	53	54	52	46	-1	-1	-1	-1	-1	15	-1	23	47	39	25	-1	51	3	63
-1	52	7	-1	33	5	28	51	64	40	-1	-1	-1	-1	-1	27	14	-1	-1	-1	20	-1	12	-1	63	-1	59	-1	47	62	44	-1	42	30	13	2	43	61	-1	54	-1	-1	-1	-1	21	18	-1	41	-1	50	-1	-1	-1	-1	19	-1	36	53	22	-1	37	-1	-1	46
-1	25	-1	6	53	36	8	-1	-1	15	-1	-1	49	-1	-1	38	-1	-1	5	-1	-1	-1	-1	41	34	-1	-1	58	3	19	9	-1	-1	-1	17	-1	63	-1	40	-1	-1	-1	-1	16	-1	11	13	-1	4	-1	14	-1	-1	-1	-1	28	24	-1	26	-1	-1	-1	29	43
-1	-1	50	49	26	-1	-1	27	14	-1	54	35	45	9	-1	53	18	-1	-1	21	8	62	55	2	-1	-1	43	-1	-1	30	33	-1	4	11	-1	22	36	58	10	-1	56	39	46	-1	-1	-1	-1	-1	7	-1	34	57	-1	1	-1	-1	-1	19	-1	5	40	32	16	61
58	3	-1	10	-1	11	-1	-1	59	-1	44	-1	-1	-1	21	6	39	-1	54	-1	9	-1	-1	51	-1	-1	-1	46	7	-1	36	-1	25	-1	-1	53	-1	62	1	-1	55	4	37	-1	-1	20	-1	50	-1	16	41	-1	-1	-1	45	-1	-1	27	-1	-1	-1	-1	-1	34
-1	38	-1	1	22	-1	-1	-1	-1	20	-1	5	43	-1	-1	4	-1	-1	37	-1	61	17	-1	7	-1	-1	41	2	-1	12	-1	52	-1	46	51	26	34	-1	56	-1	28	10	27	49	-1	63	36	-1	-1	29	-1	32	-1	-1	-1	21	-1	-1	14	-1	62	-1	-1	-1
40	64	27	39	-1	-1	54	-1	-1	22	59	17	-1	-1	-1	-1	-1	28	-1	-1	23	-1	18	49	45	-1	56	20	16	-1	62	3	19	29	52	-1	9	-1	21	-1	1	-1	26	-1	43	55	58	-1	24	60	-1	-1	-1	32	-1	-1	33	-1	8	-1	34	14	47	-1
-1	-1	-1	-1	43	41	22	-1	36	39	-1	13	-1	33	-1	-1	-1	8	-1	53	30	51	-1	47	44	-1	-1	-1	32	-1	-1	2	-1	-1	10	-1	-1	23	42	25	18	19	-1	11	-1	-1	-1	-1	49	-1	-1	6	-1	31	17	46	62	-1	-1	-1	50	-1	4	3
53	-1	49	-1	12	-1	-1	57	28	43	-1	-1	-1	-1	-1	-1	-1	-1	9	-1	1	63	-1	-1	36	-1	-1	-1	11	64	-1	4	-1	7	60	45	-1	40	-1	-1	-1	-1	-1	52	-1	-1	-1	-1	-1	-1	-1	3	-1	-1	25	56	29	-1	-1	58	-1	-1	24	-1
38	19	-1	31	-1	14	44	-1	46	53	-1	30	-1	-1	2	-1	-1	17	-1	58	62	-1	-1	6	-1	63	-1	-1	-1	37	-1	48	-1	36	-1	47	64	34	-1	3	21	45	20	-1	-1	61	4	-1	-1	18	59	-1	-1	-1	26	12	39	54	-1	-1	10	-1	49	-1
-1	9	5	2	17	-1	-1	-1	-1	-1	-1	-1	-1	44	-1	-1	-1	-1	-1	-1	-1	3	32	-1	43	-1	-1	27	21	-1	55	-1	54	26	-1	-1	28	-1	4	1	12	-1	64	22	-1	23	10	-1	8	-1	-1	41	-1	-1	-1	-1	-1	38	7	57	25	-1	-1	59
-1	-1	1	-1	4	61	23	-1	-1	-1	-1	8	63	20	-1	-1	-1	-1	12	-1	60	22	-1	-1	-1	-1	25	-1	54	53	-1	-1	-1	17	44	16	-1	31	-1	-1	-1	14	-1	40	34	-1	57	47	5	58	-1	-1	7	30	-1	19	64	-1	27	6	-1	-1	-1	35
59	-1	42	-1	-1	-1	-1	-1	45	4	-1	7	25	52	15	-1	35	21	-1	-1	14	31	-1	50	-1	-1	-1	12	-1	47	17	-1	8	57	6	5	32	24	-1	-1	-1	38	-1	3	16	56	-1	-1	-1	54	-1	-1	20	-1	-1	43	63	-1	23	53	-1	36	60	51
-1	-1	3	11	50	32	60	16	40	58	-1	-1	18	-1	10	23	56	-1	34	-1	45	-1	37	-1	49	-1	1	38	-1	-1	42	-1	55	-1	-1	39	13	35	53	61	-1	31	44	-1	24	8	-1	-1	62	51	4	-1	-1	57	14	-1	12	-1	-1	52	-1	20	17	41
-1	54	-1	30	49	-1	-1	-1	38	-1	-1	63	-1	-1	6	-1	-1	10	-1	14	-1	7	-1	64	53	-1	-1	-1	-1	41	-1	-1	-1	-1	-1	18	60	39	62	-1	35	23	22	48	42	28	59	40	16	-1	51	52	3	13	27	50	15	43	-1	4	57	-1	-1	-1
10	53	14	-1	13	19	-1	44	-1	-1	36	-1	30	-1	12	-1	4	-1	58	-1	3	-1	9	18	1	-1	15	24	52	43	54	45	-1	61	-1	-1	-1	37	28	-1	-1	-1	56	46	27	7	-1	-1	29	-1	-1	-1	-1	-1	5	-1	-1	32	20	60	-1	41	-1	-1
6	-1	-1	55	-1	23	-1	-1	-1	64	34	20	7	3	-1	61	-1	-1	-1	54	41	52	-1	-1	-1	37	30	32	-1	-1	25	46	43	-1	59	48	-1	-1	24	-1	15	-1	19	44	57	17	-1	45	47	-1	10	-1	4	11	-1	-1	-1	1	62	-1	-1	-1	58	-1
-1	33	36	63	-1	50	-1	41	-1	24	-1	-1	32	60	-1	-1	-1	-1	55	-1	-1	46	42	21	-1	-1	8	11	-1	3	-1	-1	-1	-1	-1	7	10	-1	20	44	61	47	-1	29	14	-1	-1	-1	-1	-1	-1	22	-1	-1	18	-1	-1	-1	31	12	48	19	2	30
-1	43	47	34	37	31	24	29	50	-1	-1	22	62	15	44	33	-1	19	-1	-1	-1	-1	49	27	-1	-1	7	-1	4	59	-1	-1	-1	-1	36	-1	41	-1	-1	-1	52	-1	13	20	-1	16	11	-1	61	25	-1	28	-1	-1	-1	-1	-1	-1	-1	3	-1	-1	55	38
-1	48	58	38	3	-1	-1	11	43	25	-1	9	-1	57	-1	-1	-1	-1	56	-1	-1	45	61	15	21	12	17	-1	10	35	-1	-1	-1	-1	-1	14	-1	64	8	27	-1	-1	-1	-1	-1	30	37	53	-1	32	19	20	-1	24	46	-1	28	-1	-1	-1	23	-1	-1	39
12	56	52	62	1	-1	-1	60	19	-1	-1	-1	-1	41	27	-1	30	-1	48	-1	-1	29	11	-1	-1	22	40	13	49	-1	-1	50	2	16	15	57	3	-1	-1	55	-1	26	4	24	32	43	64	-1	-1	-1	-1	23	-1	-1	-1	6	59	17	-1	47	61	63	8	-1
25	4	16	7	-1	42	-1	-1	29	-1	46	-1	-1	-1	35	-1	1	53	-1	-1	-1	-1	8	-1	28	-1	31	26	5	-1	57	-1	40	13	30	12	-1	-1	-1	-1	3	41	39	-1	2	-1	-1	58	-1	63	-1	55	-1	-1	60	62	-1	14	-1	-1	-1	37	10	-1
-1	49	22	17	-1	8	51	28	-1	31	29	-1	13	-1	-1	19	-1	37	-1	30	54	-1	6	57	-1	46	3	64	-1	27	11	-1	-1	-1	53	36	-1	-1	-1	24	-1	55	2	47	-1	34	35	-1	-1	56	60	-1	33	7	-1	-1	-1	-1	63	43	1	38	32	23
-1	-1	-1	16	-1	-1	13	2	18	11	20	-1	-1	-1	64	56	-1	29	51	-1	-1	-1	25	60	31	42	-1	43	-1	-1	-1	55	-1	3	63	19	-1	-1	41	49	-1	44	28	-1	-1	-1	-1	-1	-1	-1	-1	50	-1	-1	-1	-1	8	-1	-1	14	33	7	36	-1
31	-1	-1	-1	-1	46	-1	-1	-1	50	-1	-1	-1	-1	-1	-1	-1	-1	-1	1	-1	-1	64	-1	-1	8	53	4	-1	21	-1	23	-1	6	7	-1	-1	-1	-1	-1	57	-1	12	-1	37	9	41	-1	-1	49	17	-1	42	-1	59	-1	-1	-1	-1	16	29	60	44	-1
26	27	63	-1	-1	-1	20	-1	-1	28	52	-1	-1	1	41	44	-1	7	-1	-1	21	49	56	-1	51	-1	34	62	60	-1	-1	32	48	-1	-1	-1	18	-1	23	42	-1	-1	33	14	5	4	-1	30	6	24	-1	-1	-1	-1	-1	38	22	39	-1	31	-1	45	57	37
11	-1	-1	-1	57	56	53	-1	54	-1	-1	-1	34	47	7	-1	-1	3	52	-1	26	41	-1	61	25	-1	-1	19	50	-1	38	-1	-1	31	29	1	-1	-1	39	-1	-1	42	15	45	58	-1	49	60	23	-1	12	51	8	-1	-1	48	9	5	30	-1	-1	13	6	17
50	-1	34	60	42	55	18	-1	-1	8	30	26	-1	-1	-1	9	45	-1	47	-1	-1	33	-1	-1	-1	-1	-1	-1	57	22	-1	37	61	20	38	-1	-1	44	51	-1	31	-1	1	-1	-1	36	19	32	27	13	-1	14	-1	3	-1	4	-1	-1	10	56	41	49	25	-1
5	-1	62	37	48	-1	45	-1	-1	-1	-1	-1	-1	-1	55	12	-1	-1	-1	-1	-1	-1	63	8	-1	-1	-1	-1	13	-1	41	-1	50	14	40	-1	56	54	-1	-1	-1	-1	-1	6	-1	24	43	51	20	22	-1	36	-1	-1	30	-1	-1	-1	-1	64	26	-1	42	4
33	7	-1	-1	15	-1	10	-1	-1	-1	17	-1	-1	14	60	-1	-1	31	13	-1	-1	-1	35	4	-1	49	26	44	-1	-1	2	-1	-1	34	-1	-1	-1	28	-1	9	29	18	-1	8	-1	39	50	22	-1	61	57	54	-1	62	-1	-1	51	52	-1	21	20	-1	53	27
-1	-1	-1	64	-1	-1	14	56	17	-1	-1	-1	41	-1	22	25	51	36	-1	-1	12	-1	-1	-1	61	-1	-1	-1	-1	-1	18	38	-1	1	9	54	-1	-1	44	11	45	-1	-1	59	-1	31	62	35	-1	-1	7	-1	-1	60	-1	29	-1	-1	15	-1	-1	-1	26	53
1	-1	-1	23	35	-1	25	4	30	-1	62	60	15	-1	-1	45	61	-1	18	-1	39	64	-1	-1	57	-1	-1	-1	-1	6	32	53	21	59	-1	-1	-1	20	3	2	40	-1	11	13	41	-1	24	-1	12	55	56	10	54	-1	-1	33	-1	-1	-1	-1	-1	34	7	-1
-1	15	53	-1	-1	13	-1	52	-1	-1	-1	59	-1	48	-1	24	-1	33	-1	22	11	-1	-1	46	2	-1	5	21	28	34	-1	41	-1	-1	-1	60	-1	-1	-1	58	54	7	-1	-1	19	51	-1	-1	-1	27	-1	-1	45	-1	38	26	-1	-1	-1	23	-1	29	-1	42
62	-1	-1	-1	60	27	48	12	-1	55	39	-1	2	38	-1	28	-1	52	-1	-1	44	-1	24	5	-1	58	-1	-1	-1	-1	-1	13	45	22	31	-1	4	-1	47	-1	-1	64	-1	-1	-1	32	-1	37	-1	-1	49	-1	57	20	9	-1	-1	50	3	35	59	18	-1	56
55	-1	-1	58	47	28	-1	7	-1	-1	10	-1	-1	63	-1	36	32	-1	21	13	-1	-1	-1	-1	-1	-1	22	37	-1	4	46	-1	52	-1	56	-1	29	19	-1	64	20	-1	-1	-1	18	-1	-1	-1	-1	-1	11	-1	-1	2	62	44	6	-1	-1	-1	16	8	-1	-1
-1	-1	32	42	-1	57	29	-1	-1	-1	53	40	33	-1	-1	18	-1	-1	-1	56	-1	-1	30	31	-1	-1	-1	-1	27	-1	8	-1	63	37	23	-1	-1	26	-1	7	48	49	21	5	-1	-1	-1	46	43	3	-1	58	35	25	51	-1	10	62	4	2	-1	9	64	20
37	6	-1	-1	-1	-1	-1	18	7	-1	51	-1	8	42	-1	43	59	-1	-1	-1	40	-1	29	-1	30	60	-1	-1	63	15	45	-1	28	55	14	-1	-1	13	-1	-1	-1	50	-1	-1	22	2	52	-1	53	-1	-1	-1	-1	-1	-1	-1	-1	-1	36	-1	19	-1	31	-1
20	-1	45	-1	-1	-1	16	30	26	35	58	-1	11	31	-1	-1	6	49	41	57	27	-1	-1	-1	-1	43	-1	52	55	-1	-1	40	-1	33	-1	24	48	53	32	-1	-1	-1	-1	-1	-1	-1	12	34	-1	-1	13	-1	61	-1	-1	15	60	-1	1	22	5	-1	38	-1
-1	-1	-1	21	27	6	-1	-1	25	-1	-1	29	59	55	-1	-1	-1	-1	35	-1	-1	-1	51	-1	-1	50	11	-1	-1	63	19	-1	-1	-1	46	43	-1	12	13	52	2	40	-1	-1	9	58	20	17	-1	1	-1	-1	37	53	-1	-1	-1	34	18	-1	-1	-1	-1	-1
-1	-1	17	57	2	-1	-1	-1	60	-1	9	15	10	-1	-1	-1	-1	20	-1	-1	38	-1	-1	56	23	21	46	40	64	-1	48	-1	-1	-1	-1	-1	51	-1	26	-1	27	-1	24	34	45	-1	30	-1	14	43	16	-1	-1	-1	39	-1	-1	-1	58	-1	8	4	-1	29
-1	51	9	15	-1	-1	-1	-1	49	-1	31	-1	-1	19	-1	46	34	-1	-1	60	-1	13	-1	-1	-1	53	-1	-1	14	-1	61	-1	-1	-1	-1	-1	-1	42	-1	8	22	-1	-1	-1	-1	-1	-1	-1	-1	47	-1	17	-1	12	33	-1	20	-1	21	48	54	64	-1	2
35	-1	18	-1	23	-1	-1	47	-1	34	21	-1	-1	2	63	48	53	-1	-1	45	-1	-1	19	22	5	-1	-1	-1	-1	-1	24	1	-1	39	25	61	49	-1	7	40	11	-1	10	55	56	41	33	-1	51	36	-1	62	28	4	-1	52	-1	-1	-1	-1	-1	-1	50	13
-1	-1	54	-1	-1	-1	-1	49	-1	5	-1	32	40	-1	43	64	-1	-1	8	-1	-1	-1	-1	-1	-1	45	27	7	-1	-1	-1	-1	-1	53	-1	21	23	63	17	20	-1	-1	-1	-1	39	-1	15	44	-1	-1	25	56	46	34	-1	-1	31	36	47	24	6	-1	-1	12
-1	34	-1	-1	45	7	38	10	-1	42	-1	12	61	-1	-1	11	-1	-1	-1	-1	57	-1	23	-1	22	9	54	18	-1	25	20	-1	-1	60	3	-1	-1	48	16	-1	-1	1	49	37	46	-1	-1	-1	-1	-1	5	-1	-1	29	-1	-1	53	-1	-1	41	39	15	35	44
-1	-1	-1	8	16	-1	-1	26	27	-1	-1	-1	-1	-1	-1	30	-1	-1	25	15	-1	11	-1	-1	59	-1	36	49	62	-1	-1	-1	57	-1	58	-1	2	5	34	33	-1	-1	-1	12	38	48	-1	-1	10	-1	21	-1	-1	-1	-1	24	-1	46	-1	-1	-1	-1	-1	7
43	-1	-1	46	59	58	31	-1	33	52	18	-1	-1	-1	-1	47	-1	-1	-1	-1	-1	-1	-1	9	-1	-1	-1	35	-1	51	-1	-1	-1	19	22	56	44	4	-1	36	-1	6	61	28	50	-1	21	-1	-1	-1	27	7	49	-1	-1	30	-1	63	40	-1	-1	-1	-1	-1
23	-1	43	-1	18	-1	-1	-1	12	46	15	-1	21	-1	29	-1	-1	-1	-1	40	-1	-1	60	10	-1	-1	2	53	-1	50	59	-1	-1	56	-1	-1	31	38	19	-1	-1	63	-1	51	-1	49	9	11	22	14	20	42	24	-1	-1	64	17	-1	37	-1	-1	-1	5	-1
-1	-1	-1	-1	21	-1	30	40	-1	-1	-1	-1	54	62	-1	-1	-1	-1	-1	-1	64	-1	22	-1	-1	52	-1	-1	6	24	14	61	39	50	47	20	5	-1	2	10	41	-1	-1	-1	1	-1	-1	36	38	59	43	53	-1	46	-1	63	-1	31	-1	-1	51	26	27	-1
-1	-1	-1	9	-1	-1	11	58	-1	36	1	51	5	-1	26	31	-1	54	4	2	-1	18	38	-1	13	-1	37	47	45	-1	43	-1	64	-1	41	17	52	-1	27	48	-1	34	59	-1	-1	12	-1	-1	-1	-1	-1	19	-1	35	-1	16	21	8	33	61	14	39	46	-1
-1	-1	31	-1	32	1	56	-1	-1	63	-1	-1	-1	-1	25	-1	-1	-1	-1	24	15	-1	-1	42	-1	11	-1	-1	44	10	-1	-1	-1	21	-1	-1	46	-1	-1	-1	37	-1	-1	-1	-1	-1	-1	5	41	62	3	-1	6	-1	12	-1	18	-1	53	-1	58	-1	-1	-1
64	17	29	26	38	16	-1	50	-1	61	-1	4	-1	40	53	52	-1	59	-1	-1	43	27	62	-1	3	-1	-1	-1	-1	-1	35	-1	-1	42	-1	-1	-1	-1	-1	28	39	-1	-1	-1	33	-1	-1	-1	58	-1	-1	60	10	15	-1	32	-1	45	-1	13	63	44	34	19
-1	-1	2	-1	20	-1	-1	22	47	6	32	-1	37	11	-1	39	26	-1	-1	19	-1	-1	3	34	-1	1	-1	-1	46	-1	-1	42	58	-1	-1	-1	-1	30	63	-1	-1	-1	17	-1	-1	-1	27	10	-1	-1	-1	-1	-1	9	8	-1	38	48	-1	-1	35	24	43	49
24	-1	59	5	-1	-1	-1	-1	48	-1	49	43	-1	-1	45	-1	-1	56	57	46	63	21	13	52	-1	-1	-1	-1	-1	38	15	-1	-1	40	12	55	-1	-1	9	60	50	29	-1	7	8	14	16	2	-1	30	-1	-1	1	61	-1	-1	-1	10	-1	28	-1	54	-1	-1
19	-1	12	27	34	39	-1	-1	-1	41	-1	-1	-1	-1	30	-1	37	-1	31	-1	-1	-1	-1	44	-1	51	-1	-1	-1	18	21	17	-1	-1	61	-1	7	-1	-1	-1	23	20	58	15	4	22	-1	64	-1	45	-1	29	-1	-1	28	49	3	9	-1	-1	-1	-1	59	-1
64 
30 33 56 63
60 58 24 35
3 31 48 42
54 41 3 25
35 31 30 16
43 11 26 64
44 31 31 50
26 56 44 50
61 13 27 34
33 55 56 60
56 2 9 59
58 25 52 2
10 56 20 48
35 24 7 8
20 33 14 19
39 26 18 53
58 20 34 33
8 33 15 54
48 15 53 63
19 37 43 26
3 40 62 49
19 54 60 13
14 44 44 20
56 18 41 61
61 59 48 58
29 51 15 30
20 52 51 35
57 22 31 21
27 38 38 53
16 14 23 6
26 48 63 28
12 19 43 61
30 35 21 50
34 55 23 29
58 43 3 59
32 32 60 33
18 58 28 51
15 26 45 39
27 7 4 29
40 22 51 24
61 57 23 43
13 20 29 36
2 61 3 14
43 58 10 33
29 11 55 10
9 2 23 41
25 11 13 1
21 48 29 10
39 10 32 12
36 59 60 64
22 4 17 16
34 6 39 43
8 4 55 47
44 63 61 43
62 12 54 59
47 12 54 4
11 23 18 30
36 5 16 58
60 36 36 19
16 1 20 27
8 7 10 26
1 12 8 27
37 54 44 41
16 51 26 61
